n_res = 4;
rc = [ 0, 0, 0, 0 ];
n_tasks = 30;
d = [ 2, 9, 3, 7, 2, 9, 8, 10, 5, 7, 4, 2, 2, 8, 10, 4, 7, 2, 7, 4, 3, 4, 6, 1, 4, 3, 7, 1, 5, 2 ];
rr = [| 0, 0, 0, 0, 0, 0, 0, 0, 0, 0, 0, 0, 0, 0, 0, 0, 0, 0, 0, 0, 0, 0, 0, 0, 0, 0, 0, 0, 0, 0
      | 0, 0, 0, 0, 0, 0, 0, 0, 0, 0, 0, 0, 0, 0, 0, 0, 0, 0, 0, 0, 0, 0, 0, 0, 0, 0, 0, 0, 0, 0
      | 0, 0, 0, 0, 0, 0, 0, 0, 0, 0, 0, 0, 0, 0, 0, 0, 0, 0, 0, 0, 0, 0, 0, 0, 0, 0, 0, 0, 0, 0
      | 0, 0, 0, 0, 0, 0, 0, 0, 0, 0, 0, 0, 0, 0, 0, 0, 0, 0, 0, 0, 0, 0, 0, 0, 0, 0, 0, 0, 0, 0 |];
suc = [ { 4, 7, 16 },
       { 22 },
       { 5, 8, 14 },
       { 6, 11 },
       { 13, 17 },
       { 21, 26 },
       { 9 },
       { 10 },
       { 12, 15 },
       { 25, 29 },
       { 21 },
       { 24, 29 },
       { 18, 19 },
       { 22, 30 },
       { 18, 24 },
       { 19 },
       { 19 },
       { 26 },
       { 20, 28 },
       { 23 },
       { 24 },
       { 27, 29 },
       { 30 },
       { 27 },
       { 26 },
       { 28 },
       { 28 },
       {  },
       {  },
       {  } ];
